TYPE : Vertex Cover
DIMENSION: 34
EDGE_DATA_SECTION:
0 4
0 16
0 19
0 32
1 5
1 19
2 7
2 9
2 14
2 29
2 32
3 5
3 6
3 14
3 33
4 8
4 13
4 18
5 10
6 11
6 19
6 22
6 23
6 33
7 28
8 22
8 25
8 28
9 19
11 14
11 17
11 24
11 33
12 15
14 15
14 32
15 23
16 19
16 32
17 23
17 29
17 30
20 24
20 26
21 32
21 33
23 25
24 25
24 27
24 31
25 27
25 30
26 27
28 30
-1
VERTEX_DEGREE:
4.0 2.0 5.0 4.0 4.0 3.0 6.0 2.0 4.0 2.0 1.0 5.0 1.0 1.0 5.0 3.0 3.0 4.0 1.0 5.0 2.0 2.0 2.0 4.0 5.0 5.0 2.0 3.0 3.0 2.0 3.0 1.0 5.0 4.0
VERTEX_COVER:
0 2 4 5 6 14 15 17 19 22 24 25 26 28 32 33
EOF
